instances/shortest_path/discrete/shortest_path_3_13.lp
\ Model nohadani_3_13
\ LP format - for model browsing. Use MPS format to capture full model detail.
\ Signature: 0xf9a0f44b955a6a9b
Minimize
  47.51841748206689 y[0,1] + 66.64833081180653 y[0,2]
   + 47.51841748206689 y[1,0] + 26.83281572999748 y[1,2]
   + 66.64833081180653 y[2,0] + 26.83281572999748 y[2,1] + x[0,1] + x[0,2]
   + x[1,0] + x[1,2] + x[2,0] + x[2,1] + 4.751841748206689 r[0,1]
   + 6.664833081180653 r[0,2] + 4.751841748206689 r[1,0]
   + 2.683281572999748 r[1,2] + 6.664833081180653 r[2,0]
   + 2.683281572999748 r[2,1]
Subject To
 flow_cons_inner_nodes[1]: y[0,1] - y[1,0] - y[1,2] + y[2,1] = 0
 flow_cons_source: y[0,1] + y[0,2] - y[1,0] - y[2,0] = 1
 flow_cons_target: y[0,2] + y[1,2] - y[2,0] - y[2,1] = 1
 primal_lower: 7.038215292850704 x[0,1] + 6.207523424227595 x[0,2]
   + 12.12724770234888 x[1,0] + 11.11029939598321 x[1,2]
   + 2.306249084778917 x[2,0] + 1.273599494574858 x[2,1] + 87 u[0,1]
   + 79 u[0,2] + 53 u[1,0] + 66 u[1,2] + 7 u[2,0] + 81 u[2,1] <= 87
 mccormick1[0,1]: - u[0,1] + r[0,1] <= 0
 mccormick1[0,2]: - u[0,2] + r[0,2] <= 0
 mccormick1[1,0]: - u[1,0] + r[1,0] <= 0
 mccormick1[1,2]: - u[1,2] + r[1,2] <= 0
 mccormick1[2,0]: - u[2,0] + r[2,0] <= 0
 mccormick1[2,1]: - u[2,1] + r[2,1] <= 0
 mccormick2[0,1]: - y[0,1] + r[0,1] <= 0
 mccormick2[0,2]: - y[0,2] + r[0,2] <= 0
 mccormick2[1,0]: - y[1,0] + r[1,0] <= 0
 mccormick2[1,2]: - y[1,2] + r[1,2] <= 0
 mccormick2[2,0]: - y[2,0] + r[2,0] <= 0
 mccormick2[2,1]: - y[2,1] + r[2,1] <= 0
 mccormick3[0,1]: - y[0,1] - u[0,1] + r[0,1] >= -1
 mccormick3[0,2]: - y[0,2] - u[0,2] + r[0,2] >= -1
 mccormick3[1,0]: - y[1,0] - u[1,0] + r[1,0] >= -1
 mccormick3[1,2]: - y[1,2] - u[1,2] + r[1,2] >= -1
 mccormick3[2,0]: - y[2,0] - u[2,0] + r[2,0] >= -1
 mccormick3[2,1]: - y[2,1] - u[2,1] + r[2,1] >= -1
Bounds
Binaries
 y[0,1] y[0,2] y[1,0] y[1,2] y[2,0] y[2,1] x[0,1] x[0,2] x[1,0] x[1,2]
 x[2,0] x[2,1] u[0,1] u[0,2] u[1,0] u[1,2] u[2,0] u[2,1] r[0,1] r[0,2]
 r[1,0] r[1,2] r[2,0] r[2,1]
End
