instances/shortest_path/discrete/shortest_path_3_13.kp
85104
87

[7.038215292850704 6.207523424227595 12.12724770234888 11.110299395983214 2.3062490847789165 1.273599494574858]

[87 79 53 66 7 81]
